100 10
17 4
19 40
53 49
89 83
63 90
49 4
80 41
65 46
69 50
32 8
19 47
81 76
99 59
21 100
2 35
83 1
70 62
48 76
67 28
26 47
39 76
58 38
70 27
66 17
78 10
45 96
78 45
9 91
54 33
41 80
73 43
9 96
77 27
27 45
83 22
20 70
32 86
50 69
56 34
57 67
74 33
73 40
11 77
99 67
61 29
19 42
86 38
28 54
82 81
6 38
45 22
36 63
59 22
26 25
97 65
42 2
4 12
84 26
40 37
78 7
10 46
9 18
95 83
4 45
92 10
7 51
2 79
87 15
10 44
20 89
99 54
29 64
5 3
37 92
63 79
28 98
79 73
60 5
39 59
57 53
66 15
19 37
98 90
74 57
7 61
33 56
88 69
40 10
42 98
4 1
83 8
72 41
88 8
8 44
57 12
6 53
43 26
51 69
66 30
92 24
388 480
447 506
624 761
481 540
540 667
360 422
522 639
464 534
452 524
354 427
